120
[12,13,14,15,16,17,18,19,20,21,22,23,24,25,26,27,28,29,30,31,32,33,34,35,36,37,38,39,40,41,42,43,44,45,46,47,48,49,50,51,52,53,54,55,56,57,58,59,60,61,62,63,64,65,66,67,68,69,70,71,72,73,74,75,76,77,78,79,80,81,82,83,84,85,86,87,88,89,90,91,92,93,94,95,96]
[5,7,9,14,12,12,5,10,4,11,3,7,6,7,10,9,7,7,10,14,7,11,12,11,5,7,8,9,5,8,12,6,9,10,8,7,9,6,6,7,8,14,12,8,10,9,6,13,12,9,13,10,5,9,13,11,8,6,10,7,10,7,11,8,8,10,5,11,11,7,13,8,3,9,11,11,17,9,7,9,5,8,12,6,9]
